79 48 
41 94 
86 81 
88 88 
77 61 
65 94 
77 11 
28 71 
59 24 
90 95 
3 18 
36 77 
47 62 
37 97 
99 92 
2 57 
29 46 
88 34 
0 60 
17 72 
89 94 
35 77 
46 32 
52 43 
63 36 
4 91 
50 87 
48 13 
20 35 
20 74